************************************************************************
file with basedata            : md350_.bas
initial value random generator: 941427549
************************************************************************
projects                      :  1
jobs (incl. supersource/sink ):  22
horizon                       :  164
RESOURCES
  - renewable                 :  2   R
  - nonrenewable              :  2   N
  - doubly constrained        :  0   D
************************************************************************
PROJECT INFORMATION:
pronr.  #jobs rel.date duedate tardcost  MPM-Time
    1     20      0       22        9       22
************************************************************************
PRECEDENCE RELATIONS:
jobnr.    #modes  #successors   successors
   1        1          3           2   3   4
   2        3          2           6  11
   3        3          3           5   7  11
   4        3          2           7  12
   5        3          3           8  10  20
   6        3          2           7   9
   7        3          3          16  18  21
   8        3          2          12  15
   9        3          3          15  16  20
  10        3          1          13
  11        3          3          12  14  18
  12        3          1          21
  13        3          3          14  16  17
  14        3          1          15
  15        3          1          19
  16        3          1          19
  17        3          2          19  21
  18        3          1          20
  19        3          1          22
  20        3          1          22
  21        3          1          22
  22        1          0        
************************************************************************
REQUESTS/DURATIONS:
jobnr. mode duration  R 1  R 2  N 1  N 2
------------------------------------------------------------------------
  1      1     0       0    0    0    0
  2      1     1       2    6    0    4
         2     4       1    6    0    3
         3     6       1    5    9    0
  3      1     1       6    8    4    0
         2     1       7    8    0    9
         3     3       5    5    4    0
  4      1     6       7    9    0    6
         2     7       6    6    4    0
         3     8       6    4    0    5
  5      1     4       6    5    0    8
         2     7       5    5    0    7
         3     9       3    3    0    7
  6      1     6      10    7    2    0
         2     8       7    4    0   10
         3     8       8    1    0   10
  7      1     8       9   10    8    0
         2    10       8    8    7    0
         3    10       8    7    8    0
  8      1     4       9    8    4    0
         2     6       9    7    4    0
         3     9       8    6    3    0
  9      1     1       8    9    0    4
         2     4       6    8    6    0
         3     9       5    7    0    4
 10      1     4       4   10    0    6
         2     6       4    8    0    6
         3     8       4    8    3    0
 11      1     3       8    8    0    3
         2     7       8    8    8    0
         3    10       5    7    7    0
 12      1     6       6    5    5    0
         2     7       5    4    0    7
         3    10       4    4    4    0
 13      1     4       7    7    5    0
         2     7       7    6    5    0
         3     9       6    6    3    0
 14      1     5       5    9    5    0
         2     6       5    8    0    5
         3     7       2    8    5    0
 15      1     3       9    8    0    4
         2     5       5    7    7    0
         3     5       6    6    8    0
 16      1     3       8   10    6    0
         2     9       7   10    0    4
         3     9       6   10    2    0
 17      1     2       3    8    8    0
         2     9       3    8    5    0
         3     9       3    8    0    6
 18      1     2       5    7    4    0
         2     7       4    6    4    0
         3     9       4    6    0    6
 19      1     1       6    3    8    0
         2     6       5    2    0    2
         3     7       5    2    5    0
 20      1     3       7    4    0    8
         2     7       6    4    0    5
         3    10       6    3    4    0
 21      1     2       7    7    6    0
         2     8       6    7    0    8
         3     9       6    4    0    4
 22      1     0       0    0    0    0
************************************************************************
RESOURCEAVAILABILITIES:
  R 1  R 2  N 1  N 2
   20   24  107  100
************************************************************************
MAXIMAL LAGS:
from  to  type  delay
    1   12   ES      0
    1    2   ES      0
    2   12   ES      0
    1    3   ES      0
    3   12   ES      0
    1    4   ES      0
    4   12   ES      0
    1    5   ES      0
    5   12   ES      0
    1    6   ES      0
    6   12   ES      0
    1    7   ES      0
    7   12   ES      0
    1    8   ES      0
    8   12   ES      0
    1    9   ES      0
    9   12   ES      0
    1   10   ES      0
   10   12   ES      0
    1   11   ES      0
   11   12   ES      0
    1   12   ES      0
    2    6   SS     -6
    2    6   SE      5
    6    2   SE      0
    2    6   ES      0
    2    6   EE     -6
    2   11   SS     -9
    2   11   SE    -12
    2   11   ES     -2
    2   11   EE      8
    3    5   SS    -11
    3    5   SE     -2
    3    5   ES     -7
    3    5   EE     -4
    3    7   SS     -5
    3    7   SE      4
    3    7   ES     -5
    3    7   EE      5
    3   11   SS     10
    3   11   SE    -12
    3   11   ES     -1
    3   11   EE      5
    4    7   SS     10
    4    7   SE     -7
    4    7   ES      1
    4    7   EE      7
    5    8   SS     -7
    5    8   SE      9
    5    8   ES     12
    5    8   EE      6
    5   10   SS     12
    5   10   SE      7
    5   10   ES    -11
    5   10   EE    -11
    5   20   SS      2
    5   20   SE      0
    5   20   ES      5
    5   20   EE     10
    6    7   SS      1
    6    7   SE     -7
    6    7   ES      2
    6    7   EE     12
    6    9   SS      1
    6    9   SE     -5
    6    9   ES     -5
    6    9   EE     -7
    7   16   SS      5
    7   16   SE     -6
    7   16   ES      4
    7   16   EE      7
    7   18   SS      0
    7   18   SE      9
    7   18   ES     -6
    7   18   EE     -6
    7   21   SS      3
    7   21   SE      1
    7   21   ES     11
    7   21   EE    -10
    8   15   SS      4
    8   15   SE     -2
    8   15   ES      8
    8   15   EE     -9
    9   15   SS      8
    9   15   SE      5
    9   15   ES     12
    9   15   EE     12
    9   16   SS      0
    9   16   SE     -7
    9   16   ES      0
    9   16   EE      2
    9   20   SS     -9
    9   20   SE     -5
    9   20   ES      1
    9   20   EE      5
   10   13   SS     -3
   10   13   SE     12
   10   13   ES     -9
   10   13   EE    -12
   11   14   SS    -10
   11   14   SE     -6
   11   14   ES     -8
   11   14   EE      9
   11   18   SS      4
   11   18   SE     -7
   11   18   ES     -6
   11   18   EE     -5
   12   21   SS     10
   12   21   SE      7
   12   21   ES     -8
   12   21   EE     -9
   13   14   SS      9
   13   14   SE      5
   13   14   ES      4
   13   14   EE     11
   13   16   SS     -5
   13   16   SE     -1
   13   16   ES     -7
   13   16   EE      2
   13   17   SS     11
   13   17   SE      7
   13   17   ES     11
   13   17   EE    -10
   14   15   SS      4
   14   15   SE      3
   14   15   ES     -2
   14   15   EE     10
   15   19   SS     12
   15   19   SE     11
   15   19   ES     10
   15   19   EE    -12
   16   19   SS      0
   16   19   SE      3
   16   19   ES      3
   16   19   EE      0
   17   19   SS     -9
   17   19   SE      8
   17   19   ES    -11
   17   19   EE      1
   17   21   SS     12
   17   21   SE      8
   17   21   ES     11
   17   21   EE     -1
   18   20   SS      6
   18   20   SE     -7
   18   20   ES    -12
   18   20   EE      8
   19   22   SS      5
   19   22   SE      4
   19   22   ES     -9
   19   22   EE      8
   20   22   SS     -4
   20   22   SE     -5
   20   22   ES     12
   20   22   EE    -10
   21   22   SS      7
   21   22   SE     -8
   21   22   ES      2
   21   22   EE      7
************************************************************************
